NAME : RWPToy-5-0
COMMENT : Toy. 5 postmen. Max route 31304=21599.76s=6h.
TYPE : TSP
DIMENSION : 6
VEHICLES : 5
SCALE : 100000
DISTANCE : 21599.760000
EDGE_WEIGHT_TYPE : EXPLICIT
EDGE_WEIGHT_FORMAT : UPPER_ROW
EDGE_WEIGHT_SECTION
672.235187
714.590428
799.656998
293.189457
1047.750279

87.167565
1415.929682
382.495729
435.756752

1458.284924
424.850971
388.439182

1036.883953
1791.160836

758.010822

DEPOT_SECTION
1
-1
EOF
